<number of tasks>
30

<cycle time>
27

<task times>
1 8
2 7
3 19
4 10
5 2
6 6
7 14
8 10
9 1
10 4
11 14
12 15
13 5
14 12
15 9
16 10
17 2
18 10
19 18
20 16
21 21
22 14
23 16
24 7
25 17
26 9
27 25
28 7
29 14
30 2

<precedence relations>
1,4
1,5
2,11
2,12
3,16
3,17
4,7
5,6
6,7
7,8
8,9
9,26
10,24
12,13
13,14
14,15
14,20
15,22
16,20
17,18
18,19
20,21
20,24
21,22
22,23
23,27
24,25
25,26
26,27
27,28
27,29
29,30

<setup times forward>
1,11:1
1,12:2
1,13:2
1,14:1
1,15:1
1,16:1
1,19:1
1,20:1
1,22:2
1,24:1
1,25:1
2,6:2
2,7:1
2,8:2
2,11:1
2,12:2
2,16:1
2,19:1
3,6:2
3,7:1
3,8:2
3,11:1
3,12:2
3,13:2
3,14:1
3,15:1
3,16:1
4,6:2
4,7:1
4,11:1
4,12:2
4,13:2
4,14:1
4,15:1
4,16:1
4,19:1
4,20:1
4,22:2
4,24:1
4,25:1
5,6:2
5,11:1
5,12:2
5,13:2
5,14:1
5,15:1
5,16:1
5,19:1
5,20:1
5,22:2
5,24:1
5,25:1
6,2:2
6,3:2
6,4:2
6,7:1
6,10:2
6,11:1
6,14:1
6,15:3
6,16:1
6,17:2
6,18:2
6,19:1
6,20:3
6,21:2
6,23:2
6,24:3
6,25:3
7,2:1
7,3:1
7,8:1
7,10:1
7,12:1
7,13:1
7,15:2
7,17:1
7,18:1
7,20:2
7,21:1
7,22:1
7,23:1
7,24:2
7,25:2
8,2:2
8,3:2
8,9:2
8,10:2
8,11:1
8,14:1
8,15:3
8,16:1
8,17:2
8,18:2
8,19:1
8,20:3
8,21:2
8,23:2
8,24:3
8,25:3
9,11:1
9,12:2
9,13:2
9,14:1
9,15:1
9,16:1
9,19:1
9,20:1
9,22:2
9,24:1
9,25:1
10,6:2
10,7:1
10,8:2
10,11:1
10,12:2
10,13:2
10,14:1
10,15:1
10,16:1
10,19:1
10,20:1
10,22:2
10,24:1
11,1:1
11,3:1
11,4:1
11,5:1
11,6:1
11,8:1
11,9:1
11,10:1
11,12:1
11,13:1
11,15:2
11,17:1
11,18:1
11,20:2
11,21:1
11,22:1
11,23:1
11,24:2
11,25:2
11,26:1
11,27:3
11,29:1
12,1:2
12,3:2
12,4:2
12,5:2
12,7:1
12,9:2
12,10:2
12,11:1
12,16:1
12,17:2
12,18:2
12,19:1
13,1:2
13,3:2
13,4:2
13,5:2
13,7:1
13,9:2
13,10:2
13,11:1
13,14:1
13,16:1
13,17:2
13,18:2
13,19:1
14,1:1
14,3:1
14,4:1
14,5:1
14,6:1
14,8:1
14,9:1
14,10:1
14,15:2
14,17:1
14,18:1
14,20:2
15,1:1
15,3:1
15,4:1
15,5:1
15,6:3
15,7:2
15,8:3
15,9:1
15,10:1
15,11:2
15,16:2
15,17:1
15,18:1
15,19:2
15,21:1
15,22:3
15,26:1
16,1:1
16,2:1
16,4:1
16,5:1
16,6:1
16,8:1
16,9:1
16,10:1
16,12:1
16,13:1
16,15:2
16,17:1
16,18:1
16,20:2
17,6:2
17,7:1
17,8:2
17,11:1
17,12:2
17,13:2
17,14:1
17,15:1
17,16:1
17,20:1
17,22:2
17,24:1
17,25:1
17,27:2
17,28:1
17,30:1
18,6:2
18,7:1
18,8:2
18,11:1
18,12:2
18,13:2
18,14:1
18,15:1
18,16:1
18,19:1
18,20:1
18,22:2
18,24:1
18,25:1
18,27:2
18,28:1
18,30:1
19,1:1
19,2:1
19,4:1
19,5:1
19,6:1
19,8:1
19,9:1
19,10:1
19,12:1
19,13:1
19,15:2
19,20:2
19,21:1
19,22:1
19,23:1
19,24:2
19,25:2
19,26:1
19,27:3
19,29:1
20,1:1
20,4:1
20,5:1
20,6:3
20,7:2
20,8:3
20,9:1
20,10:1
20,11:2
20,17:1
20,18:1
20,19:2
20,21:1
21,6:2
21,7:1
21,8:2
21,11:1
21,15:1
21,19:1
21,22:2
21,24:1
21,25:1
22,1:2
22,4:2
22,5:2
22,7:1
22,9:2
22,10:2
22,11:1
22,17:2
22,18:2
22,19:1
22,23:2
22,24:3
22,25:3
22,26:2
23,6:2
23,7:1
23,8:2
23,11:1
23,19:1
23,24:1
23,25:1
23,27:2
24,1:1
24,4:1
24,5:1
24,6:3
24,7:2
24,8:3
24,9:1
24,11:2
24,17:1
24,18:1
24,19:2
24,21:1
24,22:3
24,23:1
25,1:1
25,4:1
25,5:1
25,6:3
25,7:2
25,8:3
25,9:1
25,11:2
25,17:1
25,18:1
25,19:2
25,21:1
25,22:3
25,23:1
25,26:1
26,11:1
26,15:1
26,19:1
26,22:2
26,27:2
27,11:3
27,17:2
27,18:2
27,19:3
27,28:3
27,29:2
28,17:1
28,18:1
28,29:1
29,11:1
29,19:1
29,28:1
29,30:1
30,17:1
30,18:1

<setup times backward>
1,15:1
1,20:1
1,24:1
1,25:1
3,15:1
4,15:1
4,20:1
4,24:1
4,25:1
5,15:1
5,20:1
5,24:1
5,25:1
6,1:2
6,2:2
6,3:2
6,4:2
6,5:2
6,10:2
6,11:1
6,14:1
6,15:3
6,16:1
6,17:2
6,18:2
6,19:1
6,20:3
6,21:2
6,23:2
6,24:3
6,25:3
7,1:1
7,2:1
7,3:1
7,4:1
7,5:1
7,10:1
7,15:2
7,17:1
7,18:1
7,20:2
7,21:1
7,23:1
7,24:2
7,25:2
8,1:2
8,2:2
8,3:2
8,4:2
8,5:2
8,7:1
8,10:2
8,11:1
8,14:1
8,15:3
8,16:1
8,17:2
8,18:2
8,19:1
8,20:3
8,21:2
8,23:2
8,24:3
8,25:3
9,15:1
9,20:1
9,24:1
9,25:1
10,15:1
10,20:1
11,1:1
11,2:1
11,3:1
11,4:1
11,5:1
11,9:1
11,10:1
11,15:2
11,17:1
11,18:1
11,20:2
11,21:1
11,23:1
11,24:2
11,25:2
11,26:1
11,27:3
11,29:1
12,1:2
12,2:2
12,3:2
12,4:2
12,5:2
12,7:1
12,9:2
12,10:2
12,11:1
12,16:1
12,17:2
12,18:2
12,19:1
13,1:2
13,2:2
13,3:2
13,4:2
13,5:2
13,7:1
13,9:2
13,10:2
13,11:1
13,16:1
13,17:2
13,18:2
13,19:1
14,1:1
14,2:1
14,3:1
14,4:1
14,5:1
14,9:1
14,10:1
14,17:1
14,18:1
16,1:1
16,2:1
16,3:1
16,4:1
16,5:1
16,9:1
16,10:1
16,15:2
16,17:1
16,18:1
17,15:1
17,20:1
17,24:1
17,25:1
17,27:2
18,15:1
18,20:1
18,24:1
18,25:1
18,27:2
19,1:1
19,2:1
19,3:1
19,4:1
19,5:1
19,9:1
19,10:1
19,15:2
19,17:1
19,18:1
19,20:2
19,21:1
19,23:1
19,24:2
19,25:2
19,26:1
19,27:3
19,29:1
21,15:1
21,20:1
21,24:1
21,25:1
22,1:2
22,2:2
22,3:2
22,4:2
22,5:2
22,7:1
22,9:2
22,10:2
22,11:1
22,14:1
22,15:3
22,16:1
22,17:2
22,18:2
22,19:1
22,20:3
22,21:2
22,24:3
22,25:3
22,26:2
23,15:1
23,20:1
23,24:1
23,25:1
26,15:1
26,20:1
26,24:1
26,25:1
28,1:1
28,2:1
28,3:1
28,4:1
28,5:1
28,9:1
28,10:1
28,15:2
28,17:1
28,18:1
28,20:2
28,21:1
28,23:1
28,24:2
28,25:2
28,26:1
28,27:3
28,29:1
29,15:1
29,20:1
29,24:1
29,25:1
29,27:2
30,1:1
30,2:1
30,3:1
30,4:1
30,5:1
30,9:1
30,10:1
30,15:2
30,17:1
30,18:1
30,20:2
30,21:1
30,23:1
30,24:2
30,25:2
30,26:1
30,27:3
30,29:1

<end>

<optimal SALBP-1 value>
13


<rand seed>
467321153

<Lower Bounds>
Lm1=12
Lms1=12
Lm2=12
Lm3=11
Lm4=12
Best=12

<Optimal Stations (Iterations: 10)>
14
